(declare-const |main__x'0| Int)
(declare-const |main____CPAchecker_TMP_0___0'| Int)
(declare-const main__y Int)
(declare-const main__x Int)
(declare-const |main__y'0| Int)
(declare-const |__tmp_28_0'| Int)
(declare-const main____CPAchecker_TMP_0___0 Int)
(declare-const main____CPAchecker_TMP_0 Int)
(declare-const term_to_project_onto4_integralized Int)
(declare-const |main__x'| Int)
(declare-const |main__y'| Int)
(declare-const term_to_project_onto_integralized Int)
(declare-const |__tmp_31_0'0| Int)
(declare-const |main____CPAchecker_TMP_0'0| Int)
(declare-const term_to_project_onto0_integralized Int)
(declare-const term_to_project_onto2_integralized Int)
(declare-const __tmp_28_0 Int)
(declare-const havoc Int)
(declare-const rem Int)
(declare-const term_to_project_onto3_integralized Int)
(declare-const |main____CPAchecker_TMP_0'| Int)
(declare-const __tmp_31_0 Int)
(declare-const term_to_project_onto1_integralized Int)
(declare-const |main____CPAchecker_TMP_0___0'0| Int)
(declare-const |__tmp_31_0'| Int)
(declare-const K Int)
(assert (exists
         ((standardize_int?1 Int) (standardize_int?2 Int)
            (quotient_integralized?3 Int) (quotient_integralized?4 Int))
         (and (= main__y 0) (<= (+ (- main__x) 1) 0) (= main__y 0)
                (= (+ (- |main__x'0|) (* 2 K) main__x) 0)
                (= (+ (- |main__y'0|) main__y) 0)
                (or (and (= K 0)
                           (= (+ (- |main____CPAchecker_TMP_0___0'0|)
                                   main____CPAchecker_TMP_0___0) 0)
                           (= (+ (- |main____CPAchecker_TMP_0'0|) __tmp_28_0) 0)
                           (= (+ (- |main__y'0|) main__y) 0)
                           (= (+ (- |main__x'0|) main__x) 0)
                           (= (+ (- |__tmp_31_0'0|) __tmp_31_0) 0))
                      (and (<= (+ (- K) 1) 0) (= main__y 0)
                             (<= (+ (- main__x) 1) 0)
                             (= (+ (- |__tmp_31_0'0|)
                                     |main____CPAchecker_TMP_0___0'0|) 0)
                             (= (+ (- |__tmp_31_0'0|)
                                     |main____CPAchecker_TMP_0'0|) 0)
                             (= |main__y'0| 0) (<= (+ (- |main__x'0|) 3) 0)))
                (<= (- K) 0) (= |main__y'0| 0) (<= (+ (- |main__x'0|) 1) 0)
                (= |main__y'0| 0)
                (or (<= (+ havoc 1) 0) (<= (+ (- havoc) 1) 0))
                (or (<= |main__x'0| 0)
                      (and (<= (- rem) 0)
                             (or (<= rem 0) (<= (+ (- rem) 2) 0))
                             (or (<= (+ rem -2) 0) (<= (+ rem 2) 0))
                             (= standardize_int?1 quotient_integralized?3)))
                (= standardize_int?2 quotient_integralized?4)
                (<= (- |main__x'0|) 0)
                (= (+ |main____CPAchecker_TMP_0___0'| (- havoc)) 0)
                (= (+ |main____CPAchecker_TMP_0'|
                        (- |main____CPAchecker_TMP_0'0|)) 0) (= |main__y'| 0)
                (= (+ |main__x'| (- |main__x'0|) -1) 0)
                (= (+ |__tmp_31_0'| (- |__tmp_31_0'0|)) 0)
                (= (+ |__tmp_28_0'| (- havoc)) 0)
                (= (+ term_to_project_onto4_integralized
                        (- (+ |__tmp_28_0'| (- __tmp_28_0)))) 0)
                (= (+ term_to_project_onto3_integralized
                        (- (+ |__tmp_31_0'| (- __tmp_31_0)))) 0)
                (= (+ term_to_project_onto2_integralized
                        (- (+ |main__x'| (- main__x)))) 0)
                (= (+ term_to_project_onto1_integralized
                        (- (+ |main__y'| (- main__y)))) 0)
                (= (+ term_to_project_onto0_integralized
                        (- (+ |main____CPAchecker_TMP_0'|
                                (- main____CPAchecker_TMP_0)))) 0)
                (= (+ term_to_project_onto_integralized
                        (- (+ |main____CPAchecker_TMP_0___0'|
                                (- main____CPAchecker_TMP_0___0)))) 0)
                (= (+ |main__x'0| -2) (* 3 quotient_integralized?4))
                (= (+ |main__x'0| (- rem)) (* 3 quotient_integralized?3)))))
(check-sat)